# Solution for model meiosis_srl_ilp
# Objective value = 9.1978251682852485e-01
Z_284_0_0 0
Z_284_0_1 0
Z_284_0_2 0
Z_284_0_3 0
Z_284_0_4 1
Z_284_1_0 0
Z_284_1_1 0
Z_284_1_2 1
Z_284_1_3 0
Z_284_1_4 0
